p cnf 250 2264
1 2 3 4 5 0
6 7 8 9 10 0
11 12 13 14 15 0
16 17 18 19 20 0
21 22 23 24 25 0
26 27 28 29 30 0
31 32 33 34 35 0
36 37 38 39 40 0
41 42 43 44 45 0
46 47 48 49 50 0
51 52 53 54 55 0
56 57 58 59 60 0
61 62 63 64 65 0
66 67 68 69 70 0
71 72 73 74 75 0
76 77 78 79 80 0
81 82 83 84 85 0
86 87 88 89 90 0
91 92 93 94 95 0
96 97 98 99 100 0
101 102 103 104 105 0
106 107 108 109 110 0
111 112 113 114 115 0
116 117 118 119 120 0
121 122 123 124 125 0
126 127 128 129 130 0
131 132 133 134 135 0
136 137 138 139 140 0
141 142 143 144 145 0
146 147 148 149 150 0
151 152 153 154 155 0
156 157 158 159 160 0
161 162 163 164 165 0
166 167 168 169 170 0
171 172 173 174 175 0
176 177 178 179 180 0
181 182 183 184 185 0
186 187 188 189 190 0
191 192 193 194 195 0
196 197 198 199 200 0
201 202 203 204 205 0
206 207 208 209 210 0
211 212 213 214 215 0
216 217 218 219 220 0
221 222 223 224 225 0
226 227 228 229 230 0
231 232 233 234 235 0
236 237 238 239 240 0
241 242 243 244 245 0
246 247 248 249 250 0
-1 -2 0
-1 -3 0
-1 -4 0
-1 -5 0
-2 -3 0
-2 -4 0
-2 -5 0
-3 -4 0
-3 -5 0
-4 -5 0
-6 -7 0
-6 -8 0
-6 -9 0
-6 -10 0
-7 -8 0
-7 -9 0
-7 -10 0
-8 -9 0
-8 -10 0
-9 -10 0
-11 -12 0
-11 -13 0
-11 -14 0
-11 -15 0
-12 -13 0
-12 -14 0
-12 -15 0
-13 -14 0
-13 -15 0
-14 -15 0
-16 -17 0
-16 -18 0
-16 -19 0
-16 -20 0
-17 -18 0
-17 -19 0
-17 -20 0
-18 -19 0
-18 -20 0
-19 -20 0
-21 -22 0
-21 -23 0
-21 -24 0
-21 -25 0
-22 -23 0
-22 -24 0
-22 -25 0
-23 -24 0
-23 -25 0
-24 -25 0
-26 -27 0
-26 -28 0
-26 -29 0
-26 -30 0
-27 -28 0
-27 -29 0
-27 -30 0
-28 -29 0
-28 -30 0
-29 -30 0
-31 -32 0
-31 -33 0
-31 -34 0
-31 -35 0
-32 -33 0
-32 -34 0
-32 -35 0
-33 -34 0
-33 -35 0
-34 -35 0
-36 -37 0
-36 -38 0
-36 -39 0
-36 -40 0
-37 -38 0
-37 -39 0
-37 -40 0
-38 -39 0
-38 -40 0
-39 -40 0
-41 -42 0
-41 -43 0
-41 -44 0
-41 -45 0
-42 -43 0
-42 -44 0
-42 -45 0
-43 -44 0
-43 -45 0
-44 -45 0
-46 -47 0
-46 -48 0
-46 -49 0
-46 -50 0
-47 -48 0
-47 -49 0
-47 -50 0
-48 -49 0
-48 -50 0
-49 -50 0
-51 -52 0
-51 -53 0
-51 -54 0
-51 -55 0
-52 -53 0
-52 -54 0
-52 -55 0
-53 -54 0
-53 -55 0
-54 -55 0
-56 -57 0
-56 -58 0
-56 -59 0
-56 -60 0
-57 -58 0
-57 -59 0
-57 -60 0
-58 -59 0
-58 -60 0
-59 -60 0
-61 -62 0
-61 -63 0
-61 -64 0
-61 -65 0
-62 -63 0
-62 -64 0
-62 -65 0
-63 -64 0
-63 -65 0
-64 -65 0
-66 -67 0
-66 -68 0
-66 -69 0
-66 -70 0
-67 -68 0
-67 -69 0
-67 -70 0
-68 -69 0
-68 -70 0
-69 -70 0
-71 -72 0
-71 -73 0
-71 -74 0
-71 -75 0
-72 -73 0
-72 -74 0
-72 -75 0
-73 -74 0
-73 -75 0
-74 -75 0
-76 -77 0
-76 -78 0
-76 -79 0
-76 -80 0
-77 -78 0
-77 -79 0
-77 -80 0
-78 -79 0
-78 -80 0
-79 -80 0
-81 -82 0
-81 -83 0
-81 -84 0
-81 -85 0
-82 -83 0
-82 -84 0
-82 -85 0
-83 -84 0
-83 -85 0
-84 -85 0
-86 -87 0
-86 -88 0
-86 -89 0
-86 -90 0
-87 -88 0
-87 -89 0
-87 -90 0
-88 -89 0
-88 -90 0
-89 -90 0
-91 -92 0
-91 -93 0
-91 -94 0
-91 -95 0
-92 -93 0
-92 -94 0
-92 -95 0
-93 -94 0
-93 -95 0
-94 -95 0
-96 -97 0
-96 -98 0
-96 -99 0
-96 -100 0
-97 -98 0
-97 -99 0
-97 -100 0
-98 -99 0
-98 -100 0
-99 -100 0
-101 -102 0
-101 -103 0
-101 -104 0
-101 -105 0
-102 -103 0
-102 -104 0
-102 -105 0
-103 -104 0
-103 -105 0
-104 -105 0
-106 -107 0
-106 -108 0
-106 -109 0
-106 -110 0
-107 -108 0
-107 -109 0
-107 -110 0
-108 -109 0
-108 -110 0
-109 -110 0
-111 -112 0
-111 -113 0
-111 -114 0
-111 -115 0
-112 -113 0
-112 -114 0
-112 -115 0
-113 -114 0
-113 -115 0
-114 -115 0
-116 -117 0
-116 -118 0
-116 -119 0
-116 -120 0
-117 -118 0
-117 -119 0
-117 -120 0
-118 -119 0
-118 -120 0
-119 -120 0
-121 -122 0
-121 -123 0
-121 -124 0
-121 -125 0
-122 -123 0
-122 -124 0
-122 -125 0
-123 -124 0
-123 -125 0
-124 -125 0
-126 -127 0
-126 -128 0
-126 -129 0
-126 -130 0
-127 -128 0
-127 -129 0
-127 -130 0
-128 -129 0
-128 -130 0
-129 -130 0
-131 -132 0
-131 -133 0
-131 -134 0
-131 -135 0
-132 -133 0
-132 -134 0
-132 -135 0
-133 -134 0
-133 -135 0
-134 -135 0
-136 -137 0
-136 -138 0
-136 -139 0
-136 -140 0
-137 -138 0
-137 -139 0
-137 -140 0
-138 -139 0
-138 -140 0
-139 -140 0
-141 -142 0
-141 -143 0
-141 -144 0
-141 -145 0
-142 -143 0
-142 -144 0
-142 -145 0
-143 -144 0
-143 -145 0
-144 -145 0
-146 -147 0
-146 -148 0
-146 -149 0
-146 -150 0
-147 -148 0
-147 -149 0
-147 -150 0
-148 -149 0
-148 -150 0
-149 -150 0
-151 -152 0
-151 -153 0
-151 -154 0
-151 -155 0
-152 -153 0
-152 -154 0
-152 -155 0
-153 -154 0
-153 -155 0
-154 -155 0
-156 -157 0
-156 -158 0
-156 -159 0
-156 -160 0
-157 -158 0
-157 -159 0
-157 -160 0
-158 -159 0
-158 -160 0
-159 -160 0
-161 -162 0
-161 -163 0
-161 -164 0
-161 -165 0
-162 -163 0
-162 -164 0
-162 -165 0
-163 -164 0
-163 -165 0
-164 -165 0
-166 -167 0
-166 -168 0
-166 -169 0
-166 -170 0
-167 -168 0
-167 -169 0
-167 -170 0
-168 -169 0
-168 -170 0
-169 -170 0
-171 -172 0
-171 -173 0
-171 -174 0
-171 -175 0
-172 -173 0
-172 -174 0
-172 -175 0
-173 -174 0
-173 -175 0
-174 -175 0
-176 -177 0
-176 -178 0
-176 -179 0
-176 -180 0
-177 -178 0
-177 -179 0
-177 -180 0
-178 -179 0
-178 -180 0
-179 -180 0
-181 -182 0
-181 -183 0
-181 -184 0
-181 -185 0
-182 -183 0
-182 -184 0
-182 -185 0
-183 -184 0
-183 -185 0
-184 -185 0
-186 -187 0
-186 -188 0
-186 -189 0
-186 -190 0
-187 -188 0
-187 -189 0
-187 -190 0
-188 -189 0
-188 -190 0
-189 -190 0
-191 -192 0
-191 -193 0
-191 -194 0
-191 -195 0
-192 -193 0
-192 -194 0
-192 -195 0
-193 -194 0
-193 -195 0
-194 -195 0
-196 -197 0
-196 -198 0
-196 -199 0
-196 -200 0
-197 -198 0
-197 -199 0
-197 -200 0
-198 -199 0
-198 -200 0
-199 -200 0
-201 -202 0
-201 -203 0
-201 -204 0
-201 -205 0
-202 -203 0
-202 -204 0
-202 -205 0
-203 -204 0
-203 -205 0
-204 -205 0
-206 -207 0
-206 -208 0
-206 -209 0
-206 -210 0
-207 -208 0
-207 -209 0
-207 -210 0
-208 -209 0
-208 -210 0
-209 -210 0
-211 -212 0
-211 -213 0
-211 -214 0
-211 -215 0
-212 -213 0
-212 -214 0
-212 -215 0
-213 -214 0
-213 -215 0
-214 -215 0
-216 -217 0
-216 -218 0
-216 -219 0
-216 -220 0
-217 -218 0
-217 -219 0
-217 -220 0
-218 -219 0
-218 -220 0
-219 -220 0
-221 -222 0
-221 -223 0
-221 -224 0
-221 -225 0
-222 -223 0
-222 -224 0
-222 -225 0
-223 -224 0
-223 -225 0
-224 -225 0
-226 -227 0
-226 -228 0
-226 -229 0
-226 -230 0
-227 -228 0
-227 -229 0
-227 -230 0
-228 -229 0
-228 -230 0
-229 -230 0
-231 -232 0
-231 -233 0
-231 -234 0
-231 -235 0
-232 -233 0
-232 -234 0
-232 -235 0
-233 -234 0
-233 -235 0
-234 -235 0
-236 -237 0
-236 -238 0
-236 -239 0
-236 -240 0
-237 -238 0
-237 -239 0
-237 -240 0
-238 -239 0
-238 -240 0
-239 -240 0
-241 -242 0
-241 -243 0
-241 -244 0
-241 -245 0
-242 -243 0
-242 -244 0
-242 -245 0
-243 -244 0
-243 -245 0
-244 -245 0
-246 -247 0
-246 -248 0
-246 -249 0
-246 -250 0
-247 -248 0
-247 -249 0
-247 -250 0
-248 -249 0
-248 -250 0
-249 -250 0
-2 -7 0
-3 -8 0
-1 -13 0
-1 -14 0
-5 -33 0
-2 -35 0
-3 -40 0
-3 -37 0
-3 -46 0
-1 -48 0
-4 -51 0
-4 -53 0
-3 -61 0
-2 -61 0
-3 -68 0
-2 -69 0
-5 -73 0
-3 -71 0
-1 -76 0
-5 -78 0
-2 -98 0
-1 -96 0
-1 -105 0
-4 -104 0
-4 -115 0
-3 -114 0
-3 -120 0
-4 -118 0
-4 -123 0
-4 -125 0
-2 -130 0
-2 -129 0
-4 -134 0
-3 -135 0
-3 -136 0
-3 -137 0
-3 -157 0
-4 -159 0
-5 -162 0
-5 -161 0
-1 -167 0
-5 -167 0
-5 -178 0
-2 -177 0
-1 -187 0
-5 -188 0
-2 -197 0
-2 -196 0
-3 -203 0
-4 -203 0
-3 -210 0
-2 -206 0
-3 -215 0
-5 -212 0
-4 -220 0
-3 -219 0
-3 -221 0
-1 -224 0
-3 -229 0
-2 -226 0
-2 -231 0
-2 -235 0
-2 -240 0
-2 -237 0
-2 -247 0
-5 -248 0
-8 -16 0
-8 -20 0
-9 -28 0
-10 -27 0
-9 -31 0
-9 -35 0
-10 -39 0
-7 -39 0
-10 -43 0
-6 -44 0
-9 -47 0
-6 -46 0
-6 -56 0
-10 -60 0
-6 -61 0
-10 -63 0
-6 -69 0
-8 -66 0
-7 -83 0
-9 -81 0
-10 -90 0
-7 -89 0
-8 -94 0
-6 -94 0
-6 -97 0
-7 -99 0
-8 -103 0
-6 -105 0
-10 -114 0
-7 -115 0
-7 -116 0
-10 -120 0
-8 -124 0
-6 -125 0
-10 -135 0
-9 -131 0
-10 -147 0
-8 -148 0
-7 -153 0
-8 -153 0
-9 -163 0
-8 -163 0
-7 -170 0
-6 -170 0
-7 -173 0
-6 -173 0
-10 -182 0
-10 -184 0
-6 -188 0
-9 -189 0
-6 -192 0
-10 -194 0
-7 -198 0
-8 -198 0
-8 -201 0
-6 -203 0
-7 -206 0
-7 -209 0
-10 -219 0
-8 -220 0
-9 -221 0
-7 -221 0
-7 -230 0
-7 -226 0
-9 -234 0
-7 -232 0
-10 -237 0
-10 -239 0
-10 -241 0
-10 -242 0
-6 -247 0
-8 -250 0
-13 -16 0
-12 -18 0
-12 -43 0
-11 -42 0
-14 -49 0
-11 -49 0
-14 -54 0
-13 -51 0
-14 -58 0
-12 -58 0
-12 -62 0
-13 -62 0
-13 -73 0
-11 -73 0
-12 -77 0
-11 -79 0
-11 -83 0
-15 -85 0
-11 -97 0
-15 -96 0
-11 -103 0
-11 -105 0
-13 -114 0
-15 -114 0
-15 -123 0
-14 -122 0
-11 -128 0
-14 -130 0
-13 -135 0
-15 -135 0
-13 -137 0
-14 -139 0
-14 -150 0
-12 -150 0
-15 -153 0
-13 -153 0
-13 -156 0
-12 -157 0
-15 -168 0
-15 -169 0
-12 -172 0
-15 -172 0
-11 -176 0
-12 -176 0
-13 -184 0
-15 -183 0
-14 -186 0
-14 -190 0
-15 -193 0
-11 -194 0
-11 -199 0
-12 -196 0
-15 -207 0
-15 -209 0
-15 -230 0
-13 -226 0
-13 -244 0
-14 -242 0
-15 -246 0
-14 -249 0
-17 -21 0
-17 -25 0
-17 -29 0
-17 -27 0
-17 -35 0
-18 -32 0
-19 -39 0
-19 -40 0
-20 -44 0
-17 -44 0
-20 -46 0
-19 -46 0
-18 -63 0
-20 -65 0
-18 -82 0
-18 -84 0
-20 -86 0
-16 -87 0
-16 -94 0
-20 -95 0
-17 -97 0
-17 -100 0
-17 -101 0
-18 -103 0
-16 -106 0
-20 -106 0
-18 -115 0
-16 -113 0
-16 -125 0
-16 -121 0
-18 -127 0
-16 -129 0
-17 -135 0
-19 -133 0
-16 -136 0
-19 -139 0
-19 -144 0
-17 -143 0
-19 -152 0
-16 -155 0
-19 -170 0
-17 -166 0
-19 -171 0
-18 -174 0
-17 -177 0
-16 -177 0
-19 -184 0
-18 -184 0
-17 -192 0
-20 -195 0
-17 -198 0
-19 -200 0
-20 -202 0
-17 -202 0
-16 -210 0
-17 -210 0
-18 -213 0
-19 -212 0
-18 -220 0
-18 -217 0
-20 -222 0
-16 -221 0
-16 -233 0
-18 -233 0
-16 -238 0
-17 -237 0
-16 -242 0
-16 -243 0
-16 -248 0
-19 -246 0
-21 -28 0
-22 -27 0
-23 -34 0
-24 -34 0
-23 -37 0
-21 -37 0
-22 -47 0
-24 -49 0
-24 -54 0
-24 -52 0
-22 -57 0
-22 -60 0
-22 -65 0
-23 -63 0
-24 -72 0
-23 -73 0
-23 -79 0
-24 -78 0
-22 -86 0
-21 -86 0
-23 -94 0
-21 -93 0
-21 -104 0
-23 -105 0
-24 -109 0
-22 -109 0
-22 -114 0
-24 -115 0
-22 -132 0
-25 -133 0
-23 -138 0
-22 -136 0
-21 -145 0
-22 -141 0
-23 -150 0
-25 -148 0
-25 -152 0
-24 -152 0
-24 -162 0
-23 -165 0
-24 -171 0
-25 -172 0
-25 -177 0
-22 -177 0
-22 -185 0
-22 -183 0
-22 -191 0
-23 -194 0
-24 -199 0
-22 -196 0
-25 -205 0
-21 -202 0
-24 -208 0
-22 -210 0
-23 -215 0
-25 -213 0
-23 -220 0
-24 -219 0
-21 -224 0
-24 -225 0
-22 -231 0
-24 -233 0
-24 -236 0
-22 -238 0
-24 -246 0
-23 -249 0
-27 -33 0
-28 -35 0
-30 -39 0
-27 -39 0
-27 -42 0
-29 -42 0
-29 -49 0
-27 -50 0
-30 -51 0
-27 -52 0
-27 -59 0
-27 -60 0
-30 -65 0
-28 -61 0
-29 -69 0
-26 -69 0
-30 -72 0
-29 -74 0
-28 -81 0
-30 -84 0
-29 -87 0
-30 -88 0
-26 -98 0
-29 -100 0
-28 -102 0
-27 -105 0
-29 -106 0
-26 -109 0
-26 -114 0
-29 -111 0
-28 -116 0
-27 -118 0
-30 -124 0
-26 -125 0
-26 -126 0
-28 -129 0
-27 -132 0
-26 -132 0
-28 -136 0
-29 -140 0
-26 -148 0
-28 -149 0
-27 -153 0
-28 -154 0
-30 -166 0
-27 -168 0
-29 -175 0
-29 -171 0
-27 -185 0
-29 -181 0
-29 -194 0
-30 -194 0
-26 -201 0
-27 -205 0
-26 -206 0
-29 -209 0
-27 -215 0
-28 -213 0
-27 -224 0
-29 -224 0
-30 -227 0
-28 -227 0
-27 -232 0
-27 -234 0
-30 -237 0
-27 -236 0
-29 -242 0
-27 -243 0
-30 -250 0
-27 -247 0
-33 -42 0
-32 -44 0
-34 -47 0
-35 -50 0
-34 -55 0
-31 -51 0
-35 -60 0
-33 -59 0
-33 -78 0
-32 -77 0
-33 -83 0
-35 -84 0
-35 -89 0
-32 -88 0
-35 -92 0
-32 -91 0
-32 -100 0
-32 -98 0
-33 -104 0
-35 -102 0
-33 -106 0
-34 -110 0
-31 -115 0
-33 -113 0
-32 -120 0
-32 -118 0
-34 -121 0
-35 -121 0
-32 -130 0
-32 -127 0
-32 -132 0
-34 -131 0
-32 -136 0
-31 -136 0
-34 -141 0
-34 -143 0
-32 -146 0
-33 -149 0
-34 -151 0
-33 -155 0
-32 -156 0
-31 -159 0
-35 -163 0
-34 -165 0
-33 -174 0
-33 -173 0
-31 -196 0
-32 -198 0
-32 -201 0
-33 -202 0
-31 -207 0
-33 -208 0
-32 -213 0
-35 -212 0
-35 -219 0
-35 -218 0
-33 -223 0
-32 -223 0
-32 -230 0
-35 -226 0
-31 -238 0
-31 -240 0
-34 -249 0
-35 -248 0
-40 -58 0
-37 -58 0
-37 -70 0
-40 -68 0
-39 -77 0
-36 -76 0
-39 -92 0
-40 -94 0
-39 -99 0
-37 -99 0
-38 -102 0
-36 -102 0
-37 -110 0
-36 -108 0
-40 -130 0
-40 -127 0
-38 -135 0
-39 -135 0
-39 -140 0
-39 -138 0
-38 -148 0
-40 -150 0
-37 -154 0
-39 -152 0
-39 -158 0
-40 -158 0
-40 -165 0
-37 -164 0
-37 -167 0
-39 -170 0
-40 -173 0
-40 -174 0
-36 -198 0
-39 -200 0
-37 -209 0
-39 -208 0
-37 -212 0
-36 -214 0
-39 -218 0
-36 -217 0
-36 -223 0
-40 -221 0
-38 -230 0
-37 -227 0
-39 -235 0
-38 -233 0
-43 -49 0
-43 -47 0
-44 -51 0
-41 -55 0
-45 -57 0
-43 -60 0
-41 -61 0
-45 -64 0
-42 -67 0
-45 -70 0
-44 -72 0
-42 -73 0
-41 -88 0
-42 -87 0
-45 -94 0
-44 -91 0
-45 -98 0
-45 -97 0
-45 -104 0
-44 -101 0
-45 -110 0
-45 -108 0
-45 -115 0
-44 -115 0
-43 -117 0
-42 -120 0
-44 -129 0
-43 -128 0
-43 -135 0
-42 -132 0
-43 -142 0
-44 -145 0
-41 -147 0
-44 -147 0
-44 -157 0
-43 -160 0
-45 -161 0
-45 -163 0
-43 -168 0
-45 -169 0
-43 -171 0
-44 -174 0
-42 -177 0
-42 -180 0
-42 -184 0
-42 -183 0
-45 -187 0
-44 -186 0
-41 -193 0
-43 -195 0
-44 -199 0
-44 -196 0
-43 -202 0
-45 -205 0
-44 -213 0
-42 -212 0
-44 -222 0
-42 -225 0
-42 -229 0
-42 -230 0
-44 -238 0
-41 -238 0
-41 -243 0
-43 -242 0
-42 -246 0
-42 -247 0
-48 -58 0
-46 -58 0
-47 -64 0
-49 -63 0
-48 -69 0
-50 -70 0
-48 -76 0
-50 -80 0
-47 -88 0
-48 -90 0
-50 -92 0
-46 -91 0
-49 -98 0
-50 -97 0
-49 -102 0
-49 -101 0
-50 -110 0
-47 -110 0
-47 -118 0
-48 -118 0
-46 -124 0
-49 -123 0
-50 -134 0
-49 -133 0
-50 -137 0
-50 -138 0
-50 -146 0
-49 -147 0
-46 -153 0
-46 -151 0
-48 -160 0
-47 -156 0
-50 -174 0
-47 -174 0
-46 -179 0
-48 -178 0
-50 -181 0
-49 -182 0
-48 -194 0
-49 -194 0
-50 -196 0
-49 -200 0
-49 -204 0
-49 -203 0
-46 -215 0
-50 -214 0
-48 -221 0
-49 -224 0
-50 -228 0
-47 -228 0
-50 -232 0
-46 -233 0
-50 -239 0
-47 -238 0
-51 -59 0
-51 -56 0
-51 -62 0
-55 -65 0
-54 -69 0
-55 -68 0
-52 -71 0
-54 -75 0
-55 -98 0
-52 -99 0
-55 -114 0
-53 -112 0
-54 -122 0
-54 -123 0
-51 -130 0
-52 -128 0
-55 -133 0
-54 -132 0
-51 -136 0
-52 -140 0
-53 -151 0
-51 -153 0
-52 -157 0
-53 -158 0
-55 -169 0
-51 -169 0
-52 -185 0
-54 -182 0
-52 -188 0
-51 -188 0
-54 -194 0
-55 -191 0
-51 -200 0
-55 -196 0
-55 -210 0
-52 -206 0
-54 -212 0
-51 -213 0
-52 -217 0
-55 -217 0
-53 -224 0
-54 -223 0
-54 -227 0
-52 -228 0
-53 -240 0
-55 -236 0
-53 -247 0
-51 -249 0
-56 -66 0
-59 -66 0
-56 -94 0
-60 -95 0
-58 -98 0
-60 -97 0
-56 -104 0
-60 -105 0
-56 -109 0
-58 -109 0
-57 -124 0
-58 -121 0
-59 -126 0
-59 -129 0
-58 -132 0
-58 -135 0
-57 -149 0
-56 -150 0
-59 -151 0
-57 -151 0
-59 -159 0
-60 -160 0
-60 -162 0
-58 -165 0
-56 -180 0
-58 -180 0
-59 -181 0
-57 -181 0
-56 -192 0
-56 -191 0
-56 -200 0
-56 -196 0
-56 -201 0
-58 -205 0
-58 -206 0
-60 -208 0
-56 -213 0
-59 -215 0
-57 -216 0
-60 -216 0
-56 -224 0
-58 -221 0
-56 -229 0
-57 -230 0
-59 -242 0
-58 -241 0
-59 -246 0
-59 -250 0
-62 -70 0
-64 -67 0
-65 -73 0
-61 -72 0
-64 -81 0
-64 -82 0
-63 -88 0
-61 -86 0
-61 -95 0
-62 -91 0
-63 -102 0
-63 -101 0
-61 -108 0
-65 -106 0
-65 -112 0
-63 -114 0
-63 -119 0
-62 -120 0
-64 -125 0
-62 -123 0
-64 -127 0
-65 -126 0
-65 -133 0
-61 -135 0
-63 -137 0
-65 -138 0
-65 -142 0
-61 -142 0
-65 -148 0
-61 -147 0
-61 -163 0
-62 -165 0
-63 -166 0
-61 -167 0
-65 -171 0
-61 -174 0
-61 -178 0
-64 -179 0
-63 -184 0
-61 -181 0
-63 -187 0
-63 -189 0
-63 -204 0
-62 -201 0
-64 -213 0
-61 -211 0
-62 -218 0
-62 -219 0
-65 -229 0
-64 -227 0
-64 -234 0
-63 -233 0
-62 -237 0
-65 -236 0
-62 -243 0
-61 -244 0
-62 -248 0
-62 -246 0
-66 -75 0
-68 -72 0
-67 -80 0
-66 -76 0
-67 -84 0
-69 -85 0
-69 -90 0
-68 -86 0
-69 -92 0
-67 -94 0
-66 -99 0
-70 -97 0
-70 -106 0
-68 -110 0
-69 -111 0
-66 -112 0
-69 -119 0
-68 -119 0
-66 -126 0
-70 -129 0
-67 -135 0
-66 -132 0
-70 -136 0
-68 -138 0
-66 -145 0
-69 -141 0
-68 -148 0
-67 -147 0
-68 -155 0
-67 -155 0
-69 -156 0
-69 -159 0
-67 -163 0
-69 -165 0
-66 -168 0
-70 -167 0
-69 -180 0
-67 -177 0
-70 -185 0
-67 -181 0
-69 -195 0
-68 -193 0
-67 -196 0
-66 -196 0
-67 -205 0
-70 -202 0
-66 -209 0
-66 -210 0
-70 -214 0
-69 -214 0
-67 -218 0
-68 -219 0
-66 -221 0
-70 -222 0
-69 -234 0
-68 -235 0
-66 -239 0
-70 -236 0
-66 -241 0
-67 -243 0
-66 -247 0
-70 -246 0
-75 -77 0
-73 -80 0
-72 -100 0
-72 -98 0
-71 -102 0
-75 -105 0
-71 -110 0
-72 -109 0
-71 -113 0
-72 -112 0
-74 -119 0
-73 -117 0
-73 -125 0
-74 -123 0
-73 -127 0
-74 -129 0
-73 -135 0
-71 -132 0
-73 -139 0
-74 -139 0
-72 -150 0
-72 -148 0
-74 -155 0
-73 -151 0
-71 -159 0
-75 -157 0
-75 -169 0
-72 -169 0
-71 -174 0
-74 -171 0
-72 -177 0
-75 -176 0
-72 -189 0
-75 -186 0
-75 -193 0
-73 -195 0
-74 -200 0
-72 -198 0
-72 -204 0
-74 -204 0
-74 -223 0
-74 -221 0
-74 -230 0
-71 -226 0
-73 -238 0
-74 -238 0
-72 -244 0
-75 -241 0
-74 -249 0
-73 -249 0
-79 -89 0
-78 -89 0
-79 -92 0
-79 -93 0
-80 -97 0
-78 -98 0
-80 -104 0
-77 -105 0
-80 -114 0
-77 -113 0
-79 -119 0
-79 -116 0
-79 -128 0
-80 -128 0
-80 -133 0
-77 -131 0
-76 -144 0
-77 -141 0
-77 -150 0
-76 -150 0
-78 -154 0
-78 -152 0
-78 -158 0
-77 -156 0
-76 -164 0
-80 -164 0
-78 -168 0
-78 -170 0
-77 -174 0
-77 -173 0
-79 -176 0
-78 -179 0
-78 -185 0
-76 -182 0
-76 -187 0
-78 -186 0
-80 -195 0
-79 -192 0
-76 -203 0
-78 -205 0
-79 -225 0
-80 -225 0
-77 -229 0
-80 -230 0
-78 -233 0
-76 -234 0
-80 -248 0
-76 -250 0
-84 -87 0
-84 -88 0
-81 -94 0
-81 -95 0
-82 -98 0
-81 -97 0
-82 -104 0
-82 -103 0
-83 -108 0
-84 -106 0
-85 -112 0
-83 -115 0
-84 -119 0
-85 -120 0
-85 -125 0
-81 -123 0
-84 -128 0
-84 -127 0
-83 -131 0
-81 -134 0
-81 -140 0
-82 -138 0
-81 -148 0
-83 -149 0
-82 -156 0
-84 -158 0
-84 -164 0
-84 -161 0
-83 -181 0
-83 -182 0
-83 -200 0
-82 -200 0
-83 -208 0
-83 -207 0
-84 -212 0
-81 -214 0
-81 -219 0
-82 -218 0
-85 -236 0
-85 -238 0
-83 -248 0
-85 -248 0
-88 -92 0
-90 -91 0
-86 -99 0
-87 -100 0
-86 -103 0
-89 -101 0
-87 -114 0
-89 -111 0
-86 -119 0
-87 -117 0
-87 -121 0
-88 -121 0
-86 -132 0
-86 -135 0
-89 -136 0
-87 -136 0
-88 -146 0
-87 -150 0
-89 -154 0
-86 -154 0
-90 -160 0
-90 -157 0
-90 -162 0
-87 -165 0
-86 -174 0
-89 -171 0
-89 -185 0
-89 -184 0
-90 -187 0
-87 -190 0
-90 -194 0
-89 -192 0
-87 -198 0
-89 -199 0
-86 -201 0
-90 -203 0
-86 -209 0
-90 -209 0
-89 -215 0
-86 -215 0
-88 -217 0
-88 -220 0
-90 -221 0
-87 -221 0
-90 -228 0
-88 -229 0
-90 -250 0
-90 -247 0
-93 -106 0
-94 -106 0
-93 -118 0
-95 -116 0
-94 -121 0
-94 -124 0
-91 -134 0
-91 -135 0
-93 -145 0
-95 -143 0
-92 -152 0
-93 -151 0
-94 -164 0
-95 -161 0
-93 -167 0
-91 -167 0
-95 -177 0
-94 -178 0
-95 -185 0
-93 -182 0
-94 -186 0
-92 -188 0
-93 -195 0
-95 -193 0
-92 -209 0
-93 -208 0
-95 -215 0
-93 -213 0
-91 -221 0
-94 -223 0
-91 -229 0
-95 -226 0
-95 -231 0
-94 -235 0
-95 -240 0
-92 -240 0
-94 -242 0
-92 -245 0
-94 -246 0
-95 -247 0
-97 -110 0
-96 -109 0
-98 -120 0
-100 -116 0
-96 -125 0
-99 -124 0
-96 -132 0
-97 -132 0
-98 -145 0
-100 -141 0
-96 -147 0
-100 -149 0
-99 -154 0
-96 -151 0
-99 -160 0
-99 -157 0
-99 -164 0
-98 -163 0
-98 -170 0
-97 -167 0
-100 -186 0
-96 -189 0
-100 -191 0
-97 -193 0
-97 -198 0
-98 -200 0
-99 -205 0
-97 -201 0
-96 -221 0
-100 -225 0
-96 -226 0
-96 -229 0
-99 -233 0
-97 -232 0
-96 -238 0
-96 -236 0
-98 -248 0
-96 -248 0
-102 -110 0
-101 -106 0
-103 -113 0
-104 -111 0
-101 -118 0
-101 -119 0
-101 -127 0
-104 -130 0
-102 -131 0
-103 -131 0
-102 -152 0
-102 -154 0
-105 -158 0
-102 -158 0
-103 -173 0
-103 -175 0
-105 -176 0
-104 -179 0
-105 -185 0
-103 -184 0
-104 -188 0
-103 -187 0
-101 -191 0
-105 -191 0
-103 -196 0
-104 -199 0
-103 -206 0
-104 -206 0
-105 -212 0
-104 -213 0
-104 -216 0
-102 -217 0
-105 -223 0
-102 -222 0
-105 -234 0
-105 -231 0
-103 -239 0
-101 -237 0
-104 -241 0
-105 -241 0
-101 -248 0
-102 -250 0
-108 -118 0
-110 -117 0
-107 -125 0
-110 -121 0
-109 -131 0
-106 -135 0
-109 -136 0
-110 -136 0
-110 -143 0
-109 -141 0
-107 -155 0
-107 -153 0
-106 -164 0
-108 -165 0
-108 -168 0
-109 -166 0
-106 -172 0
-110 -173 0
-109 -178 0
-110 -178 0
-109 -181 0
-110 -184 0
-110 -186 0
-106 -190 0
-108 -193 0
-106 -192 0
-108 -197 0
-107 -200 0
-109 -215 0
-109 -212 0
-106 -216 0
-106 -218 0
-107 -222 0
-109 -222 0
-106 -235 0
-109 -235 0
-106 -241 0
-108 -243 0
-107 -248 0
-110 -246 0
-112 -125 0
-113 -124 0
-113 -135 0
-112 -134 0
-115 -137 0
-113 -140 0
-115 -143 0
-111 -143 0
-114 -147 0
-111 -146 0
-115 -155 0
-111 -155 0
-111 -162 0
-111 -163 0
-114 -173 0
-114 -174 0
-112 -183 0
-113 -183 0
-112 -187 0
-111 -190 0
-111 -193 0
-115 -193 0
-115 -205 0
-111 -201 0
-113 -210 0
-115 -207 0
-114 -215 0
-112 -211 0
-111 -220 0
-113 -219 0
-112 -225 0
-111 -222 0
-112 -228 0
-115 -229 0
-113 -233 0
-115 -231 0
-113 -242 0
-112 -245 0
-113 -248 0
-114 -249 0
-119 -130 0
-117 -130 0
-120 -139 0
-118 -137 0
-120 -144 0
-119 -144 0
-120 -148 0
-117 -147 0
-118 -155 0
-116 -151 0
-118 -156 0
-117 -158 0
-118 -174 0
-120 -174 0
-120 -179 0
-116 -178 0
-116 -185 0
-116 -182 0
-118 -187 0
-116 -187 0
-118 -202 0
-120 -201 0
-118 -208 0
-118 -207 0
-119 -215 0
-118 -215 0
-116 -220 0
-120 -218 0
-120 -230 0
-118 -228 0
-119 -238 0
-120 -238 0
-119 -243 0
-120 -245 0
-119 -247 0
-117 -249 0
-122 -134 0
-123 -131 0
-121 -140 0
-122 -138 0
-123 -151 0
-124 -151 0
-123 -174 0
-125 -172 0
-122 -180 0
-125 -178 0
-121 -185 0
-124 -185 0
-124 -197 0
-123 -196 0
-121 -207 0
-121 -206 0
-122 -211 0
-122 -215 0
-123 -218 0
-124 -220 0
-122 -222 0
-123 -225 0
-122 -229 0
-125 -226 0
-122 -243 0
-122 -242 0
-123 -248 0
-121 -248 0
-130 -131 0
-130 -132 0
-126 -140 0
-127 -139 0
-128 -148 0
-127 -146 0
-127 -156 0
-130 -158 0
-126 -161 0
-126 -165 0
-128 -166 0
-126 -167 0
-130 -185 0
-129 -181 0
-126 -191 0
-127 -195 0
-127 -197 0
-130 -196 0
-128 -205 0
-128 -203 0
-128 -207 0
-126 -208 0
-127 -213 0
-129 -213 0
-129 -217 0
-127 -218 0
-129 -227 0
-130 -230 0
-130 -234 0
-126 -231 0
-129 -237 0
-126 -237 0
-128 -241 0
-127 -242 0
-130 -248 0
-130 -250 0
-132 -140 0
-131 -137 0
-135 -141 0
-133 -144 0
-134 -146 0
-134 -147 0
-132 -152 0
-133 -155 0
-134 -157 0
-134 -158 0
-132 -174 0
-131 -173 0
-133 -178 0
-134 -178 0
-135 -183 0
-134 -184 0
-135 -187 0
-134 -187 0
-132 -195 0
-131 -191 0
-132 -198 0
-133 -198 0
-131 -202 0
-131 -204 0
-135 -209 0
-132 -207 0
-134 -219 0
-134 -216 0
-133 -222 0
-134 -223 0
-131 -226 0
-133 -226 0
-131 -232 0
-133 -233 0
-135 -237 0
-133 -236 0
-135 -241 0
-133 -243 0
-132 -249 0
-134 -246 0
-136 -142 0
-136 -145 0
-136 -147 0
-138 -150 0
-139 -154 0
-139 -153 0
-136 -159 0
-139 -156 0
-140 -166 0
-137 -168 0
-140 -172 0
-137 -174 0
-139 -178 0
-140 -176 0
-140 -184 0
-138 -181 0
-138 -189 0
-139 -188 0
-140 -192 0
-140 -194 0
-137 -196 0
-136 -199 0
-136 -208 0
-137 -209 0
-136 -215 0
-136 -214 0
-140 -222 0
-136 -225 0
-136 -243 0
-139 -242 0
-136 -246 0
-138 -248 0
-144 -158 0
-143 -158 0
-143 -162 0
-144 -165 0
-143 -166 0
-143 -167 0
-142 -172 0
-145 -172 0
-142 -178 0
-142 -176 0
-143 -186 0
-142 -190 0
-141 -193 0
-142 -192 0
-145 -201 0
-142 -205 0
-141 -208 0
-141 -207 0
-141 -214 0
-142 -212 0
-144 -224 0
-145 -225 0
-141 -228 0
-144 -227 0
-141 -240 0
-142 -236 0
-144 -243 0
-143 -244 0
-147 -154 0
-149 -154 0
-150 -157 0
-147 -160 0
-150 -166 0
-149 -168 0
-146 -172 0
-147 -172 0
-150 -180 0
-147 -178 0
-146 -185 0
-149 -185 0
-150 -195 0
-150 -192 0
-147 -199 0
-149 -197 0
-150 -206 0
-147 -207 0
-148 -211 0
-150 -215 0
-148 -216 0
-150 -216 0
-148 -226 0
-150 -230 0
-146 -232 0
-150 -234 0
-148 -238 0
-149 -237 0
-155 -159 0
-153 -157 0
-151 -161 0
-155 -165 0
-154 -175 0
-154 -171 0
-151 -180 0
-153 -176 0
-154 -182 0
-151 -182 0
-154 -192 0
-151 -194 0
-151 -213 0
-151 -214 0
-151 -218 0
-151 -217 0
-153 -224 0
-153 -225 0
-152 -227 0
-153 -226 0
-155 -232 0
-152 -235 0
-154 -238 0
-153 -238 0
-152 -245 0
-155 -241 0
-154 -246 0
-154 -247 0
-156 -162 0
-159 -164 0
-159 -174 0
-160 -175 0
-160 -182 0
-160 -181 0
-159 -188 0
-156 -190 0
-159 -194 0
-160 -195 0
-160 -198 0
-158 -196 0
-159 -215 0
-160 -215 0
-158 -230 0
-157 -227 0
-157 -231 0
-160 -234 0
-160 -245 0
-159 -243 0
-157 -247 0
-159 -248 0
-161 -167 0
-164 -169 0
-164 -175 0
-165 -172 0
-163 -188 0
-164 -190 0
-164 -191 0
-165 -195 0
-162 -199 0
-165 -197 0
-164 -208 0
-164 -207 0
-163 -225 0
-165 -224 0
-162 -226 0
-165 -230 0
-165 -234 0
-162 -235 0
-165 -243 0
-163 -243 0
-162 -247 0
-163 -248 0
-169 -175 0
-169 -174 0
-166 -180 0
-169 -180 0
-167 -195 0
-166 -193 0
-169 -207 0
-166 -207 0
-170 -220 0
-166 -218 0
-166 -224 0
-170 -224 0
-169 -232 0
-166 -233 0
-169 -236 0
-170 -239 0
-166 -247 0
-167 -248 0
-173 -191 0
-171 -192 0
-175 -200 0
-171 -197 0
-175 -205 0
-172 -201 0
-172 -210 0
-174 -207 0
-171 -219 0
-172 -217 0
-175 -223 0
-172 -224 0
-174 -235 0
-175 -234 0
-173 -250 0
-175 -248 0
-179 -187 0
-178 -190 0
-180 -193 0
-176 -194 0
-177 -196 0
-176 -200 0
-180 -209 0
-179 -207 0
-176 -214 0
-177 -214 0
-178 -217 0
-180 -217 0
-179 -223 0
-180 -224 0
-177 -226 0
-177 -229 0
-176 -233 0
-180 -234 0
-180 -238 0
-176 -237 0
-178 -245 0
-177 -241 0
-183 -196 0
-184 -200 0
-184 -205 0
-182 -203 0
-185 -217 0
-182 -218 0
-182 -230 0
-184 -229 0
-181 -240 0
-184 -239 0
-181 -242 0
-184 -242 0
-188 -195 0
-189 -193 0
-190 -205 0
-189 -203 0
-190 -214 0
-187 -213 0
-188 -218 0
-189 -220 0
-189 -224 0
-186 -223 0
-189 -230 0
-189 -226 0
-189 -234 0
-187 -231 0
-186 -247 0
-189 -247 0
-192 -203 0
-191 -203 0
-195 -215 0
-192 -212 0
-193 -217 0
-195 -219 0
-193 -224 0
-192 -223 0
-193 -229 0
-193 -226 0
-192 -233 0
-195 -234 0
-192 -239 0
-194 -237 0
-194 -242 0
-193 -245 0
-194 -250 0
-192 -249 0
-199 -201 0
-196 -205 0
-200 -206 0
-200 -208 0
-200 -217 0
-196 -216 0
-199 -224 0
-197 -223 0
-196 -228 0
-200 -226 0
-197 -232 0
-197 -231 0
-198 -238 0
-199 -237 0
-199 -248 0
-198 -247 0
-201 -218 0
-202 -216 0
-201 -224 0
-203 -222 0
-204 -235 0
-201 -232 0
-203 -240 0
-204 -240 0
-205 -241 0
-201 -245 0
-206 -219 0
-206 -218 0
-210 -235 0
-207 -231 0
-207 -238 0
-210 -236 0
-206 -242 0
-207 -244 0
-208 -246 0
-209 -249 0
-213 -218 0
-211 -220 0
-213 -224 0
-212 -224 0
-212 -235 0
-215 -231 0
-215 -238 0
-212 -238 0
-212 -242 0
-214 -245 0
-211 -246 0
-213 -249 0
-217 -225 0
-217 -224 0
-217 -242 0
-216 -245 0
-218 -246 0
-217 -247 0
-224 -230 0
-224 -228 0
-222 -234 0
-222 -231 0
-222 -236 0
-221 -240 0
-221 -244 0
-224 -245 0
-230 -240 0
-227 -236 0
-230 -244 0
-227 -244 0
-234 -244 0
-235 -242 0
-232 -246 0
-231 -246 0
-240 -249 0
-236 -250 0
-243 -248 0
-241 -249 0
